Route #1: 1 50 74 37 54 52 78 4 75 32 34 1
Route #2: 1 41 22 8 2 11 72 15 1
Route #3: 1 14 43 67 68 71 39 59 51 73 55 1
Route #4: 1 77 33 46 23 5 10 1
Route #5: 1 61 40 18 30 6 13 45 79 1
Route #6: 1 3 38 9 69 17 44 62 21 1
Route #7: 1 65 16 56 57 70 66 36 27 58 76 60 28 1
Route #8: 1 47 42 26 48 20 31 7 25 35 53 1
Route #9: 1 29 80 49 19 12 1
Route #10: 1 64 63 24 1
cost 2118.5883290453103
